15
-1 634 550 660 574 636 541 442 738 795 751 423 123 41 607 
634 -1 375 209 126 123 137 254 291 174 162 323 530 618 395 
550 375 -1 563 249 269 248 187 655 426 358 522 428 559 57 
660 209 563 -1 320 332 316 404 94 330 351 251 584 633 593 
574 126 249 320 -1 62 33 147 409 228 177 353 459 565 273 
636 123 269 332 62 -1 96 204 415 173 116 403 520 628 280 
541 137 248 316 33 96 -1 121 407 259 210 326 426 531 278 
442 254 187 404 147 204 121 -1 499 376 321 335 322 439 236 
738 291 655 94 409 415 407 499 -1 381 415 317 668 707 682 
795 174 426 330 228 173 259 376 381 -1 68 496 684 782 422 
751 162 358 351 177 116 210 321 415 68 -1 483 636 741 353 
423 323 522 251 353 403 326 335 317 496 483 -1 369 391 570 
123 530 428 584 459 520 426 322 668 684 636 369 -1 132 485 
41 618 559 633 565 628 531 439 707 782 741 391 132 -1 617 
607 395 57 593 273 280 278 236 682 422 353 570 485 617 -1 
